20221024_PCST_ILP/Steiner1_dir_FC3_PtoC1_evid0.7_maxSt2_15_20.sol
# Objective value = -2.5391179075548102e+01
x_Bem2_Bud14 1
x_Hog1_Kss1 0
x_Kss1_Fus3 0
x_Fus3_Pbs2 1
x_Kss1_Pbs2 0
x_Kss1_Ste11 0
x_Ste11_Pbs2 0
x_Hog1_Mih1 1
x_Mih1_Pbs2 1
x_Hog1_Pbs2 0
x_Hog1_Ptc1 0
x_Ptc1_Nbp2 1
x_Nbp2_Pbs2 1
x_Ptc1_Pbs2 0
x_Hog1_Ptp2 1
x_Ptp2_Ptc1 1
x_Hog1_Rpo21 1
x_Rpo21_Glc7 1
x_Glc7_Bud14 1
x_Rpo21_Npl3 0
x_Npl3_Sky1 1
x_Hog1_Sho1 0
x_Sho1_Pbs2 0
x_Sho1_Ste11 0
x_Hog1_Sko1 1
x_Sko1_Fus3 1
x_Sko1_Kss1 0
x_Hog1_Slt2 0
x_Slt2_Ptc1 0
x_Hog1_Ste7 0
x_Ste7_Fus3 0
x_Ste7_Kss1 0
x_Ste7_Ras2 0
x_Ras2_Gpa2 1
x_Ste7_Ste11 0
x_Hog1_Rck2 1
x_Rim15_Pho85 0
x_Pho85_Mih1 0
x_Rim15_Sch9 1
x_Sch9_Ras2 1
x_Rim15_Tpk1 0
x_Tpk1_Ras2 0
x_Tif2_Tif4631 1
x_Tif4631_Npl3 1
x_Tif4631_Yra1 0
x_Yra1_Sub2 1
x_Tif2_Tif4632 1
x_Tif4632_Yra1 1
y_Bem2 1
y_Hog1 1
y_Kss1 0
y_Fus3 1
y_Ste11 0
y_Mih1 1
y_Ptc1 1
y_Nbp2 1
y_Ptp2 1
y_Rpo21 1
y_Glc7 1
y_Npl3 1
y_Sho1 0
y_Sko1 1
y_Slt2 0
y_Ste7 0
y_Ras2 1
y_Rim15 1
y_Pho85 0
y_Sch9 1
y_Tpk1 0
y_Tif2 1
y_Tif4631 1
y_Yra1 1
y_Tif4632 1
y_Bud14 1
y_Pbs2 1
y_Sky1 1
y_Gpa2 1
y_Rck2 1
y_Sub2 1
